%nprocshared=20
%mem=170GB
%chk=SingleCAg2T1BP.chk
#p b3lyp/genecp 10f 6d symmetry=none scrf=solvent=water

Title Card Required

0 1
 P                0   13.29200000   17.35700000   14.74600000
 O                0   12.83013368   18.14201960   15.94385089
 O                0   13.35879193   18.26406372   13.54716837
 O                0   14.75300000   16.74300000   15.03700000
 C                0   15.11400000   16.22600000   16.30500000
 H                0   14.50500000   15.35100000   16.53100000
 H                0   14.93200000   16.99100000   17.05900000
 C                0   16.60200000   15.84700000   16.35400000
 H                0   16.81300000   15.01000000   15.69100000
 O                0   17.39100000   16.96500000   15.98100000
 C                0   18.56300000   16.91600000   16.74900000
 H                0   19.17900000   16.05900000   16.52900000
 N                0   19.24700000   18.21600000   16.68900000
 C                0   18.70400000   19.33800000   16.09300000
 H                0   17.73400000   19.27300000   15.59300000
 C                0   19.40500000   20.50000000   16.09900000
 H                0   19.00900000   21.37000000   15.59700000
 C                0   20.66100000   20.52200000   16.78700000
 N                0   21.49600000   21.50700000   16.50800000
 H                0   22.00300000   22.00200000   17.23300000
 H                0   21.51800000   21.81800000   15.55400000
 N                0   21.21000000   19.41700000   17.27400000
 C                0   20.52000000   18.25000000   17.22200000
 O                0   21.07000000   17.23500000   17.63900000
 C                0   17.06900000   15.55500000   17.79200000
 H                0   16.23100000   15.46800000   18.48600000
 C                0   17.92400000   16.78100000   18.09000000
 H                0   17.33200000   17.67300000   18.24100000
 H                0   18.69900000   16.60200000   18.81900000
 O                0   17.88900000   14.40800000   17.87300000
 P                0   32.34300000   15.62400000   16.20800000
 O                0   33.07800561   15.19911572   14.96555759
 O                0   32.04764582   17.09781058   16.13678684
 O                0   30.97400000   14.81200000   16.32000000
 C                0   30.09300000   14.76500000   15.21400000
 H                0   30.58300000   14.28000000   14.36500000
 H                0   29.82900000   15.78100000   14.91200000
 C                0   28.83800000   13.97900000   15.59800000
 H                0   29.09600000   12.91800000   15.63400000
 O                0   28.30400000   14.39300000   16.86200000
 C                0   26.93300000   14.75900000   16.72300000
 H                0   26.36700000   14.37100000   17.57200000
 N                0   26.76000000   16.25000000   16.66500000
 C                0   27.83600000   17.11100000   16.63500000
 H                0   28.84500000   16.72000000   16.71000000
 C                0   27.61500000   18.43600000   16.54000000
 C                0   28.81600000   19.36400000   16.51200000
 H                0   29.76400000   18.82500000   16.54600000
 H                0   28.78600000   19.96400000   15.60000000
 H                0   28.76100000   20.05400000   17.35700000
 C                0   26.23300000   18.93700000   16.47300000
 O                0   25.97900000   20.13600000   16.41900000
 N                0   25.15600000   18.08600000   16.49900000
 H                0   23.53000000   16.37500000   16.77000000
 C                0   25.44400000   16.75500000   16.65800000
 O                0   24.37900000   15.91800000   16.81200000
 C                0   27.73400000   14.14300000   14.56000000
 H                0   27.76300000   15.13500000   14.11200000
 C                0   26.51400000   14.03000000   15.44700000
 H                0   25.64700000   14.48100000   14.97500000
 H                0   26.31000000   12.98500000   15.67400000
 O                0   27.76500000   13.12600000   13.58800000
 Ag               0   25.53700000   21.80000000   14.87800000
 Ag               0   23.18700000   18.82100000   16.92500000
 H                0   18.81170641   14.67231886   17.85433406
 H                0   28.67692679   12.90913671   13.38073243
 O                0   12.19042800   16.08579979   14.43828397
 H                0   11.35917191   16.45064790   14.12603538
 O                0   33.31051794   15.30223765   17.58076292
 H                0   34.23608238   15.29553656   17.32603648

C N H O P 0
6-31g(d,p)
****
Ag 0
LANL2DZ
****

Ag 0
LANL2

